; benchmark generated from python API
(set-info :status unknown)
(declare-fun cell_1_3 () Int)
(declare-fun cell_1_9 () Int)
(declare-fun cell_2_1 () Int)
(declare-fun cell_2_6 () Int)
(declare-fun cell_3_4 () Int)
(declare-fun cell_3_9 () Int)
(declare-fun cell_4_4 () Int)
(declare-fun cell_4_7 () Int)
(declare-fun cell_5_3 () Int)
(declare-fun cell_5_8 () Int)
(declare-fun cell_6_2 () Int)
(declare-fun cell_6_6 () Int)
(declare-fun cell_7_2 () Int)
(declare-fun cell_7_7 () Int)
(declare-fun cell_8_8 () Int)
(declare-fun cell_9_5 () Int)
(declare-fun cell_1_1 () Int)
(declare-fun cell_3_1 () Int)
(declare-fun cell_4_1 () Int)
(declare-fun cell_5_1 () Int)
(declare-fun cell_6_1 () Int)
(declare-fun cell_7_1 () Int)
(declare-fun cell_8_1 () Int)
(declare-fun cell_9_1 () Int)
(declare-fun cell_1_2 () Int)
(declare-fun cell_2_2 () Int)
(declare-fun cell_3_2 () Int)
(declare-fun cell_4_2 () Int)
(declare-fun cell_5_2 () Int)
(declare-fun cell_8_2 () Int)
(declare-fun cell_9_2 () Int)
(declare-fun cell_2_3 () Int)
(declare-fun cell_3_3 () Int)
(declare-fun cell_4_3 () Int)
(declare-fun cell_6_3 () Int)
(declare-fun cell_7_3 () Int)
(declare-fun cell_8_3 () Int)
(declare-fun cell_9_3 () Int)
(declare-fun cell_1_4 () Int)
(declare-fun cell_2_4 () Int)
(declare-fun cell_5_4 () Int)
(declare-fun cell_6_4 () Int)
(declare-fun cell_7_4 () Int)
(declare-fun cell_8_4 () Int)
(declare-fun cell_9_4 () Int)
(declare-fun cell_1_5 () Int)
(declare-fun cell_2_5 () Int)
(declare-fun cell_3_5 () Int)
(declare-fun cell_4_5 () Int)
(declare-fun cell_5_5 () Int)
(declare-fun cell_6_5 () Int)
(declare-fun cell_7_5 () Int)
(declare-fun cell_8_5 () Int)
(declare-fun cell_1_6 () Int)
(declare-fun cell_3_6 () Int)
(declare-fun cell_4_6 () Int)
(declare-fun cell_5_6 () Int)
(declare-fun cell_7_6 () Int)
(declare-fun cell_8_6 () Int)
(declare-fun cell_9_6 () Int)
(declare-fun cell_1_7 () Int)
(declare-fun cell_2_7 () Int)
(declare-fun cell_3_7 () Int)
(declare-fun cell_5_7 () Int)
(declare-fun cell_6_7 () Int)
(declare-fun cell_8_7 () Int)
(declare-fun cell_9_7 () Int)
(declare-fun cell_1_8 () Int)
(declare-fun cell_2_8 () Int)
(declare-fun cell_3_8 () Int)
(declare-fun cell_4_8 () Int)
(declare-fun cell_6_8 () Int)
(declare-fun cell_7_8 () Int)
(declare-fun cell_9_8 () Int)
(declare-fun cell_2_9 () Int)
(declare-fun cell_4_9 () Int)
(declare-fun cell_5_9 () Int)
(declare-fun cell_6_9 () Int)
(declare-fun cell_7_9 () Int)
(declare-fun cell_8_9 () Int)
(declare-fun cell_9_9 () Int)
(assert
 (= cell_1_3 2))
(assert
 (= cell_1_9 1))
(assert
 (= cell_2_1 1))
(assert
 (= cell_2_6 2))
(assert
 (= cell_3_4 1))
(assert
 (= cell_3_9 2))
(assert
 (= cell_4_4 2))
(assert
 (= cell_4_7 1))
(assert
 (= cell_5_3 1))
(assert
 (= cell_5_8 2))
(assert
 (= cell_6_2 2))
(assert
 (= cell_6_6 1))
(assert
 (= cell_7_2 1))
(assert
 (= cell_7_7 2))
(assert
 (= cell_8_8 1))
(assert
 (= cell_9_5 1))
(assert
 (let (($x1984 (= cell_1_1 9)))
 (let (($x30 (= cell_1_1 8)))
 (let (($x762 (= cell_1_1 7)))
 (let (($x7634 (= cell_1_1 6)))
 (let (($x1504 (= cell_1_1 5)))
 (let (($x1566 (= cell_1_1 4)))
 (let (($x2576 (= cell_1_1 3)))
 (let (($x1225 (= cell_1_1 2)))
 (let (($x1301 (= cell_1_1 1)))
 (or $x1301 $x1225 $x2576 $x1566 $x1504 $x7634 $x762 $x30 $x1984)))))))))))
(assert
 (let (($x3454 (= cell_2_1 1)))
 (or $x3454 (= cell_2_1 2) (= cell_2_1 3) (= cell_2_1 4) (= cell_2_1 5) (= cell_2_1 6) (= cell_2_1 7) (= cell_2_1 8) (= cell_2_1 9))))
(assert
 (let (($x2050 (= cell_3_1 9)))
 (let (($x2162 (= cell_3_1 8)))
 (let (($x385 (= cell_3_1 7)))
 (let (($x4072 (= cell_3_1 6)))
 (let (($x1745 (= cell_3_1 5)))
 (let (($x419 (= cell_3_1 4)))
 (let (($x3439 (= cell_3_1 3)))
 (let (($x2657 (= cell_3_1 2)))
 (let (($x606 (= cell_3_1 1)))
 (or $x606 $x2657 $x3439 $x419 $x1745 $x4072 $x385 $x2162 $x2050)))))))))))
(assert
 (let (($x2302 (= cell_4_1 9)))
 (let (($x2934 (= cell_4_1 8)))
 (let (($x7999 (= cell_4_1 7)))
 (let (($x778 (= cell_4_1 6)))
 (let (($x8011 (= cell_4_1 5)))
 (let (($x4024 (= cell_4_1 4)))
 (let (($x3366 (= cell_4_1 3)))
 (let (($x1039 (= cell_4_1 2)))
 (let (($x22 (= cell_4_1 1)))
 (or $x22 $x1039 $x3366 $x4024 $x8011 $x778 $x7999 $x2934 $x2302)))))))))))
(assert
 (let (($x1364 (= cell_5_1 9)))
 (let (($x268 (= cell_5_1 8)))
 (let (($x1259 (= cell_5_1 7)))
 (let (($x2893 (= cell_5_1 6)))
 (let (($x3773 (= cell_5_1 5)))
 (let (($x2623 (= cell_5_1 4)))
 (let (($x2745 (= cell_5_1 3)))
 (let (($x3088 (= cell_5_1 2)))
 (let (($x2672 (= cell_5_1 1)))
 (or $x2672 $x3088 $x2745 $x2623 $x3773 $x2893 $x1259 $x268 $x1364)))))))))))
(assert
 (let (($x7818 (= cell_6_1 9)))
 (let (($x493 (= cell_6_1 8)))
 (let (($x1979 (= cell_6_1 7)))
 (let (($x2793 (= cell_6_1 6)))
 (let (($x2821 (= cell_6_1 5)))
 (let (($x872 (= cell_6_1 4)))
 (let (($x987 (= cell_6_1 3)))
 (let (($x1954 (= cell_6_1 2)))
 (let (($x1285 (= cell_6_1 1)))
 (or $x1285 $x1954 $x987 $x872 $x2821 $x2793 $x1979 $x493 $x7818)))))))))))
(assert
 (let (($x1748 (= cell_7_1 9)))
 (let (($x2804 (= cell_7_1 8)))
 (let (($x2345 (= cell_7_1 7)))
 (let (($x65 (= cell_7_1 6)))
 (let (($x1481 (= cell_7_1 5)))
 (let (($x3466 (= cell_7_1 4)))
 (let (($x2083 (= cell_7_1 3)))
 (let (($x752 (= cell_7_1 2)))
 (let (($x127 (= cell_7_1 1)))
 (or $x127 $x752 $x2083 $x3466 $x1481 $x65 $x2345 $x2804 $x1748)))))))))))
(assert
 (let (($x7975 (= cell_8_1 9)))
 (let (($x782 (= cell_8_1 8)))
 (let (($x3918 (= cell_8_1 7)))
 (let (($x1551 (= cell_8_1 6)))
 (let (($x1604 (= cell_8_1 5)))
 (let (($x741 (= cell_8_1 4)))
 (let (($x815 (= cell_8_1 3)))
 (let (($x844 (= cell_8_1 2)))
 (let (($x254 (= cell_8_1 1)))
 (or $x254 $x844 $x815 $x741 $x1604 $x1551 $x3918 $x782 $x7975)))))))))))
(assert
 (let (($x2471 (= cell_9_1 9)))
 (let (($x4162 (= cell_9_1 8)))
 (let (($x3710 (= cell_9_1 7)))
 (let (($x8025 (= cell_9_1 6)))
 (let (($x1107 (= cell_9_1 5)))
 (let (($x806 (= cell_9_1 4)))
 (let (($x113 (= cell_9_1 3)))
 (let (($x2486 (= cell_9_1 2)))
 (let (($x2580 (= cell_9_1 1)))
 (or $x2580 $x2486 $x113 $x806 $x1107 $x8025 $x3710 $x4162 $x2471)))))))))))
(assert
 (let (($x1616 (= cell_1_2 9)))
 (let (($x677 (= cell_1_2 8)))
 (let (($x1471 (= cell_1_2 7)))
 (let (($x1350 (= cell_1_2 6)))
 (let (($x4043 (= cell_1_2 5)))
 (let (($x2152 (= cell_1_2 4)))
 (let (($x1024 (= cell_1_2 3)))
 (let (($x1680 (= cell_1_2 2)))
 (let (($x543 (= cell_1_2 1)))
 (or $x543 $x1680 $x1024 $x2152 $x4043 $x1350 $x1471 $x677 $x1616)))))))))))
(assert
 (let (($x3037 (= cell_2_2 9)))
 (let (($x2614 (= cell_2_2 8)))
 (let (($x835 (= cell_2_2 7)))
 (let (($x1339 (= cell_2_2 6)))
 (let (($x1511 (= cell_2_2 5)))
 (let (($x3376 (= cell_2_2 4)))
 (let (($x6828 (= cell_2_2 3)))
 (let (($x3261 (= cell_2_2 2)))
 (let (($x2308 (= cell_2_2 1)))
 (or $x2308 $x3261 $x6828 $x3376 $x1511 $x1339 $x835 $x2614 $x3037)))))))))))
(assert
 (let (($x682 (= cell_3_2 9)))
 (let (($x142 (= cell_3_2 8)))
 (let (($x2179 (= cell_3_2 7)))
 (let (($x249 (= cell_3_2 6)))
 (let (($x1940 (= cell_3_2 5)))
 (let (($x4145 (= cell_3_2 4)))
 (let (($x502 (= cell_3_2 3)))
 (let (($x3060 (= cell_3_2 2)))
 (let (($x2776 (= cell_3_2 1)))
 (or $x2776 $x3060 $x502 $x4145 $x1940 $x249 $x2179 $x142 $x682)))))))))))
(assert
 (let (($x1834 (= cell_4_2 9)))
 (let (($x312 (= cell_4_2 8)))
 (let (($x654 (= cell_4_2 7)))
 (let (($x1436 (= cell_4_2 6)))
 (let (($x1108 (= cell_4_2 5)))
 (let (($x2252 (= cell_4_2 4)))
 (let (($x206 (= cell_4_2 3)))
 (let (($x1398 (= cell_4_2 2)))
 (let (($x3432 (= cell_4_2 1)))
 (or $x3432 $x1398 $x206 $x2252 $x1108 $x1436 $x654 $x312 $x1834)))))))))))
(assert
 (let (($x2430 (= cell_5_2 9)))
 (let (($x2609 (= cell_5_2 8)))
 (let (($x2626 (= cell_5_2 7)))
 (let (($x1246 (= cell_5_2 6)))
 (let (($x2142 (= cell_5_2 5)))
 (let (($x1582 (= cell_5_2 4)))
 (let (($x3804 (= cell_5_2 3)))
 (let (($x1235 (= cell_5_2 2)))
 (let (($x1373 (= cell_5_2 1)))
 (or $x1373 $x1235 $x3804 $x1582 $x2142 $x1246 $x2626 $x2609 $x2430)))))))))))
(assert
 (let (($x7673 (= cell_6_2 2)))
 (or (= cell_6_2 1) $x7673 (= cell_6_2 3) (= cell_6_2 4) (= cell_6_2 5) (= cell_6_2 6) (= cell_6_2 7) (= cell_6_2 8) (= cell_6_2 9))))
(assert
 (let (($x2327 (= cell_7_2 1)))
 (or $x2327 (= cell_7_2 2) (= cell_7_2 3) (= cell_7_2 4) (= cell_7_2 5) (= cell_7_2 6) (= cell_7_2 7) (= cell_7_2 8) (= cell_7_2 9))))
(assert
 (let (($x3183 (= cell_8_2 9)))
 (let (($x2329 (= cell_8_2 8)))
 (let (($x2965 (= cell_8_2 7)))
 (let (($x474 (= cell_8_2 6)))
 (let (($x2375 (= cell_8_2 5)))
 (let (($x3180 (= cell_8_2 4)))
 (let (($x1497 (= cell_8_2 3)))
 (let (($x2445 (= cell_8_2 2)))
 (let (($x694 (= cell_8_2 1)))
 (or $x694 $x2445 $x1497 $x3180 $x2375 $x474 $x2965 $x2329 $x3183)))))))))))
(assert
 (let (($x968 (= cell_9_2 9)))
 (let (($x3794 (= cell_9_2 8)))
 (let (($x1395 (= cell_9_2 7)))
 (let (($x958 (= cell_9_2 6)))
 (let (($x471 (= cell_9_2 5)))
 (let (($x3309 (= cell_9_2 4)))
 (let (($x1293 (= cell_9_2 3)))
 (let (($x7994 (= cell_9_2 2)))
 (let (($x3496 (= cell_9_2 1)))
 (or $x3496 $x7994 $x1293 $x3309 $x471 $x958 $x1395 $x3794 $x968)))))))))))
(assert
 (let (($x3177 (= cell_1_3 2)))
 (or (= cell_1_3 1) $x3177 (= cell_1_3 3) (= cell_1_3 4) (= cell_1_3 5) (= cell_1_3 6) (= cell_1_3 7) (= cell_1_3 8) (= cell_1_3 9))))
(assert
 (let (($x455 (= cell_2_3 9)))
 (let (($x3429 (= cell_2_3 8)))
 (let (($x705 (= cell_2_3 7)))
 (let (($x2023 (= cell_2_3 6)))
 (let (($x1496 (= cell_2_3 5)))
 (let (($x3385 (= cell_2_3 4)))
 (let (($x1336 (= cell_2_3 3)))
 (let (($x3100 (= cell_2_3 2)))
 (let (($x2786 (= cell_2_3 1)))
 (or $x2786 $x3100 $x1336 $x3385 $x1496 $x2023 $x705 $x3429 $x455)))))))))))
(assert
 (let (($x1128 (= cell_3_3 9)))
 (let (($x1224 (= cell_3_3 8)))
 (let (($x3336 (= cell_3_3 7)))
 (let (($x1142 (= cell_3_3 6)))
 (let (($x3140 (= cell_3_3 5)))
 (let (($x2326 (= cell_3_3 4)))
 (let (($x941 (= cell_3_3 3)))
 (let (($x2229 (= cell_3_3 2)))
 (let (($x2849 (= cell_3_3 1)))
 (or $x2849 $x2229 $x941 $x2326 $x3140 $x1142 $x3336 $x1224 $x1128)))))))))))
(assert
 (let (($x2884 (= cell_4_3 9)))
 (let (($x3981 (= cell_4_3 8)))
 (let (($x2259 (= cell_4_3 7)))
 (let (($x6942 (= cell_4_3 6)))
 (let (($x2334 (= cell_4_3 5)))
 (let (($x2713 (= cell_4_3 4)))
 (let (($x4186 (= cell_4_3 3)))
 (let (($x3809 (= cell_4_3 2)))
 (let (($x1115 (= cell_4_3 1)))
 (or $x1115 $x3809 $x4186 $x2713 $x2334 $x6942 $x2259 $x3981 $x2884)))))))))))
(assert
 (let (($x3065 (= cell_5_3 1)))
 (or $x3065 (= cell_5_3 2) (= cell_5_3 3) (= cell_5_3 4) (= cell_5_3 5) (= cell_5_3 6) (= cell_5_3 7) (= cell_5_3 8) (= cell_5_3 9))))
(assert
 (let (($x1795 (= cell_6_3 9)))
 (let (($x3329 (= cell_6_3 8)))
 (let (($x2539 (= cell_6_3 7)))
 (let (($x1164 (= cell_6_3 6)))
 (let (($x2572 (= cell_6_3 5)))
 (let (($x1354 (= cell_6_3 4)))
 (let (($x2312 (= cell_6_3 3)))
 (let (($x451 (= cell_6_3 2)))
 (let (($x3620 (= cell_6_3 1)))
 (or $x3620 $x451 $x2312 $x1354 $x2572 $x1164 $x2539 $x3329 $x1795)))))))))))
(assert
 (let (($x499 (= cell_7_3 9)))
 (let (($x1878 (= cell_7_3 8)))
 (let (($x400 (= cell_7_3 7)))
 (let (($x2789 (= cell_7_3 6)))
 (let (($x1846 (= cell_7_3 5)))
 (let (($x1232 (= cell_7_3 4)))
 (let (($x1036 (= cell_7_3 3)))
 (let (($x2816 (= cell_7_3 2)))
 (let (($x1838 (= cell_7_3 1)))
 (or $x1838 $x2816 $x1036 $x1232 $x1846 $x2789 $x400 $x1878 $x499)))))))))))
(assert
 (let (($x2182 (= cell_8_3 9)))
 (let (($x3889 (= cell_8_3 8)))
 (let (($x3287 (= cell_8_3 7)))
 (let (($x2143 (= cell_8_3 6)))
 (let (($x2289 (= cell_8_3 5)))
 (let (($x927 (= cell_8_3 4)))
 (let (($x262 (= cell_8_3 3)))
 (let (($x2465 (= cell_8_3 2)))
 (let (($x2458 (= cell_8_3 1)))
 (or $x2458 $x2465 $x262 $x927 $x2289 $x2143 $x3287 $x3889 $x2182)))))))))))
(assert
 (let (($x7761 (= cell_9_3 9)))
 (let (($x7674 (= cell_9_3 8)))
 (let (($x534 (= cell_9_3 7)))
 (let (($x8026 (= cell_9_3 6)))
 (let (($x1061 (= cell_9_3 5)))
 (let (($x252 (= cell_9_3 4)))
 (let (($x2936 (= cell_9_3 3)))
 (let (($x2750 (= cell_9_3 2)))
 (let (($x2765 (= cell_9_3 1)))
 (or $x2765 $x2750 $x2936 $x252 $x1061 $x8026 $x534 $x7674 $x7761)))))))))))
(assert
 (let (($x1359 (= cell_1_4 9)))
 (let (($x3002 (= cell_1_4 8)))
 (let (($x1052 (= cell_1_4 7)))
 (let (($x1833 (= cell_1_4 6)))
 (let (($x1996 (= cell_1_4 5)))
 (let (($x1421 (= cell_1_4 4)))
 (let (($x1969 (= cell_1_4 3)))
 (let (($x277 (= cell_1_4 2)))
 (let (($x2544 (= cell_1_4 1)))
 (or $x2544 $x277 $x1969 $x1421 $x1996 $x1833 $x1052 $x3002 $x1359)))))))))))
(assert
 (let (($x198 (= cell_2_4 9)))
 (let (($x432 (= cell_2_4 8)))
 (let (($x220 (= cell_2_4 7)))
 (let (($x1859 (= cell_2_4 6)))
 (let (($x3058 (= cell_2_4 5)))
 (let (($x2806 (= cell_2_4 4)))
 (let (($x1410 (= cell_2_4 3)))
 (let (($x847 (= cell_2_4 2)))
 (let (($x3133 (= cell_2_4 1)))
 (or $x3133 $x847 $x1410 $x2806 $x3058 $x1859 $x220 $x432 $x198)))))))))))
(assert
 (let (($x2181 (= cell_3_4 1)))
 (or $x2181 (= cell_3_4 2) (= cell_3_4 3) (= cell_3_4 4) (= cell_3_4 5) (= cell_3_4 6) (= cell_3_4 7) (= cell_3_4 8) (= cell_3_4 9))))
(assert
 (let (($x307 (= cell_4_4 2)))
 (or (= cell_4_4 1) $x307 (= cell_4_4 3) (= cell_4_4 4) (= cell_4_4 5) (= cell_4_4 6) (= cell_4_4 7) (= cell_4_4 8) (= cell_4_4 9))))
(assert
 (let (($x683 (= cell_5_4 9)))
 (let (($x1326 (= cell_5_4 8)))
 (let (($x3668 (= cell_5_4 7)))
 (let (($x1248 (= cell_5_4 6)))
 (let (($x2337 (= cell_5_4 5)))
 (let (($x2907 (= cell_5_4 4)))
 (let (($x2737 (= cell_5_4 3)))
 (let (($x3921 (= cell_5_4 2)))
 (let (($x3951 (= cell_5_4 1)))
 (or $x3951 $x3921 $x2737 $x2907 $x2337 $x1248 $x3668 $x1326 $x683)))))))))))
(assert
 (let (($x3334 (= cell_6_4 9)))
 (let (($x2670 (= cell_6_4 8)))
 (let (($x189 (= cell_6_4 7)))
 (let (($x3163 (= cell_6_4 6)))
 (let (($x3589 (= cell_6_4 5)))
 (let (($x1847 (= cell_6_4 4)))
 (let (($x2494 (= cell_6_4 3)))
 (let (($x1299 (= cell_6_4 2)))
 (let (($x222 (= cell_6_4 1)))
 (or $x222 $x1299 $x2494 $x1847 $x3589 $x3163 $x189 $x2670 $x3334)))))))))))
(assert
 (let (($x1159 (= cell_7_4 9)))
 (let (($x3457 (= cell_7_4 8)))
 (let (($x66 (= cell_7_4 7)))
 (let (($x1531 (= cell_7_4 6)))
 (let (($x378 (= cell_7_4 5)))
 (let (($x3495 (= cell_7_4 4)))
 (let (($x1765 (= cell_7_4 3)))
 (let (($x1781 (= cell_7_4 2)))
 (let (($x2860 (= cell_7_4 1)))
 (or $x2860 $x1781 $x1765 $x3495 $x378 $x1531 $x66 $x3457 $x1159)))))))))))
(assert
 (let (($x655 (= cell_8_4 9)))
 (let (($x2542 (= cell_8_4 8)))
 (let (($x3246 (= cell_8_4 7)))
 (let (($x2001 (= cell_8_4 6)))
 (let (($x1966 (= cell_8_4 5)))
 (let (($x1755 (= cell_8_4 4)))
 (let (($x8009 (= cell_8_4 3)))
 (let (($x2297 (= cell_8_4 2)))
 (let (($x2994 (= cell_8_4 1)))
 (or $x2994 $x2297 $x8009 $x1755 $x1966 $x2001 $x3246 $x2542 $x655)))))))))))
(assert
 (let (($x2296 (= cell_9_4 9)))
 (let (($x2467 (= cell_9_4 8)))
 (let (($x2101 (= cell_9_4 7)))
 (let (($x1574 (= cell_9_4 6)))
 (let (($x2475 (= cell_9_4 5)))
 (let (($x1418 (= cell_9_4 4)))
 (let (($x3062 (= cell_9_4 3)))
 (let (($x937 (= cell_9_4 2)))
 (let (($x4022 (= cell_9_4 1)))
 (or $x4022 $x937 $x3062 $x1418 $x2475 $x1574 $x2101 $x2467 $x2296)))))))))))
(assert
 (let (($x7672 (= cell_1_5 9)))
 (let (($x2459 (= cell_1_5 8)))
 (let (($x2299 (= cell_1_5 7)))
 (let (($x2759 (= cell_1_5 6)))
 (let (($x2824 (= cell_1_5 5)))
 (let (($x1518 (= cell_1_5 4)))
 (let (($x145 (= cell_1_5 3)))
 (let (($x1791 (= cell_1_5 2)))
 (let (($x955 (= cell_1_5 1)))
 (or $x955 $x1791 $x145 $x1518 $x2824 $x2759 $x2299 $x2459 $x7672)))))))))))
(assert
 (let (($x3678 (= cell_2_5 9)))
 (let (($x1383 (= cell_2_5 8)))
 (let (($x219 (= cell_2_5 7)))
 (let (($x3987 (= cell_2_5 6)))
 (let (($x637 (= cell_2_5 5)))
 (let (($x2678 (= cell_2_5 4)))
 (let (($x1121 (= cell_2_5 3)))
 (let (($x265 (= cell_2_5 2)))
 (let (($x1688 (= cell_2_5 1)))
 (or $x1688 $x265 $x1121 $x2678 $x637 $x3987 $x219 $x1383 $x3678)))))))))))
(assert
 (let (($x169 (= cell_3_5 9)))
 (let (($x795 (= cell_3_5 8)))
 (let (($x503 (= cell_3_5 7)))
 (let (($x644 (= cell_3_5 6)))
 (let (($x3983 (= cell_3_5 5)))
 (let (($x3780 (= cell_3_5 4)))
 (let (($x2701 (= cell_3_5 3)))
 (let (($x2632 (= cell_3_5 2)))
 (let (($x2847 (= cell_3_5 1)))
 (or $x2847 $x2632 $x2701 $x3780 $x3983 $x644 $x503 $x795 $x169)))))))))))
(assert
 (let (($x673 (= cell_4_5 9)))
 (let (($x6865 (= cell_4_5 8)))
 (let (($x283 (= cell_4_5 7)))
 (let (($x3255 (= cell_4_5 6)))
 (let (($x7993 (= cell_4_5 5)))
 (let (($x576 (= cell_4_5 4)))
 (let (($x3947 (= cell_4_5 3)))
 (let (($x2444 (= cell_4_5 2)))
 (let (($x2069 (= cell_4_5 1)))
 (or $x2069 $x2444 $x3947 $x576 $x7993 $x3255 $x283 $x6865 $x673)))))))))))
(assert
 (let (($x50 (= cell_5_5 9)))
 (let (($x1486 (= cell_5_5 8)))
 (let (($x3897 (= cell_5_5 7)))
 (let (($x3782 (= cell_5_5 6)))
 (let (($x1749 (= cell_5_5 5)))
 (let (($x2635 (= cell_5_5 4)))
 (let (($x2282 (= cell_5_5 3)))
 (let (($x3591 (= cell_5_5 2)))
 (let (($x1738 (= cell_5_5 1)))
 (or $x1738 $x3591 $x2282 $x2635 $x1749 $x3782 $x3897 $x1486 $x50)))))))))))
(assert
 (let (($x1607 (= cell_6_5 9)))
 (let (($x1358 (= cell_6_5 8)))
 (let (($x506 (= cell_6_5 7)))
 (let (($x2096 (= cell_6_5 6)))
 (let (($x1675 (= cell_6_5 5)))
 (let (($x947 (= cell_6_5 4)))
 (let (($x2013 (= cell_6_5 3)))
 (let (($x2757 (= cell_6_5 2)))
 (let (($x49 (= cell_6_5 1)))
 (or $x49 $x2757 $x2013 $x947 $x1675 $x2096 $x506 $x1358 $x1607)))))))))))
(assert
 (let (($x3010 (= cell_7_5 9)))
 (let (($x513 (= cell_7_5 8)))
 (let (($x3857 (= cell_7_5 7)))
 (let (($x822 (= cell_7_5 6)))
 (let (($x61 (= cell_7_5 5)))
 (let (($x2998 (= cell_7_5 4)))
 (let (($x3314 (= cell_7_5 3)))
 (let (($x253 (= cell_7_5 2)))
 (let (($x3866 (= cell_7_5 1)))
 (or $x3866 $x253 $x3314 $x2998 $x61 $x822 $x3857 $x513 $x3010)))))))))))
(assert
 (let (($x572 (= cell_8_5 9)))
 (let (($x3440 (= cell_8_5 8)))
 (let (($x1884 (= cell_8_5 7)))
 (let (($x2260 (= cell_8_5 6)))
 (let (($x942 (= cell_8_5 5)))
 (let (($x2273 (= cell_8_5 4)))
 (let (($x3838 (= cell_8_5 3)))
 (let (($x2191 (= cell_8_5 2)))
 (let (($x786 (= cell_8_5 1)))
 (or $x786 $x2191 $x3838 $x2273 $x942 $x2260 $x1884 $x3440 $x572)))))))))))
(assert
 (let (($x1756 (= cell_9_5 1)))
 (or $x1756 (= cell_9_5 2) (= cell_9_5 3) (= cell_9_5 4) (= cell_9_5 5) (= cell_9_5 6) (= cell_9_5 7) (= cell_9_5 8) (= cell_9_5 9))))
(assert
 (let (($x961 (= cell_1_6 9)))
 (let (($x208 (= cell_1_6 8)))
 (let (($x2305 (= cell_1_6 7)))
 (let (($x1924 (= cell_1_6 6)))
 (let (($x2497 (= cell_1_6 5)))
 (let (($x2498 (= cell_1_6 4)))
 (let (($x1537 (= cell_1_6 3)))
 (let (($x1667 (= cell_1_6 2)))
 (let (($x1595 (= cell_1_6 1)))
 (or $x1595 $x1667 $x1537 $x2498 $x2497 $x1924 $x2305 $x208 $x961)))))))))))
(assert
 (let (($x832 (= cell_2_6 2)))
 (or (= cell_2_6 1) $x832 (= cell_2_6 3) (= cell_2_6 4) (= cell_2_6 5) (= cell_2_6 6) (= cell_2_6 7) (= cell_2_6 8) (= cell_2_6 9))))
(assert
 (let (($x2665 (= cell_3_6 9)))
 (let (($x2551 (= cell_3_6 8)))
 (let (($x3628 (= cell_3_6 7)))
 (let (($x1186 (= cell_3_6 6)))
 (let (($x288 (= cell_3_6 5)))
 (let (($x2316 (= cell_3_6 4)))
 (let (($x2169 (= cell_3_6 3)))
 (let (($x2355 (= cell_3_6 2)))
 (let (($x3373 (= cell_3_6 1)))
 (or $x3373 $x2355 $x2169 $x2316 $x288 $x1186 $x3628 $x2551 $x2665)))))))))))
(assert
 (let (($x1836 (= cell_4_6 9)))
 (let (($x1840 (= cell_4_6 8)))
 (let (($x3666 (= cell_4_6 7)))
 (let (($x3941 (= cell_4_6 6)))
 (let (($x702 (= cell_4_6 5)))
 (let (($x1523 (= cell_4_6 4)))
 (let (($x738 (= cell_4_6 3)))
 (let (($x7792 (= cell_4_6 2)))
 (let (($x2097 (= cell_4_6 1)))
 (or $x2097 $x7792 $x738 $x1523 $x702 $x3941 $x3666 $x1840 $x1836)))))))))))
(assert
 (let (($x1862 (= cell_5_6 9)))
 (let (($x2993 (= cell_5_6 8)))
 (let (($x1550 (= cell_5_6 7)))
 (let (($x2589 (= cell_5_6 6)))
 (let (($x907 (= cell_5_6 5)))
 (let (($x1303 (= cell_5_6 4)))
 (let (($x1366 (= cell_5_6 3)))
 (let (($x2764 (= cell_5_6 2)))
 (let (($x4195 (= cell_5_6 1)))
 (or $x4195 $x2764 $x1366 $x1303 $x907 $x2589 $x1550 $x2993 $x1862)))))))))))
(assert
 (let (($x2203 (= cell_6_6 1)))
 (or $x2203 (= cell_6_6 2) (= cell_6_6 3) (= cell_6_6 4) (= cell_6_6 5) (= cell_6_6 6) (= cell_6_6 7) (= cell_6_6 8) (= cell_6_6 9))))
(assert
 (let (($x2454 (= cell_7_6 9)))
 (let (($x4068 (= cell_7_6 8)))
 (let (($x1647 (= cell_7_6 7)))
 (let (($x548 (= cell_7_6 6)))
 (let (($x868 (= cell_7_6 5)))
 (let (($x974 (= cell_7_6 4)))
 (let (($x3812 (= cell_7_6 3)))
 (let (($x3919 (= cell_7_6 2)))
 (let (($x3117 (= cell_7_6 1)))
 (or $x3117 $x3919 $x3812 $x974 $x868 $x548 $x1647 $x4068 $x2454)))))))))))
(assert
 (let (($x2396 (= cell_8_6 9)))
 (let (($x2581 (= cell_8_6 8)))
 (let (($x3384 (= cell_8_6 7)))
 (let (($x2646 (= cell_8_6 6)))
 (let (($x1736 (= cell_8_6 5)))
 (let (($x1589 (= cell_8_6 4)))
 (let (($x1392 (= cell_8_6 3)))
 (let (($x2186 (= cell_8_6 2)))
 (let (($x1494 (= cell_8_6 1)))
 (or $x1494 $x2186 $x1392 $x1589 $x1736 $x2646 $x3384 $x2581 $x2396)))))))))))
(assert
 (let (($x1887 (= cell_9_6 2)))
 (let (($x3451 (= cell_9_6 1)))
 (or $x3451 $x1887 (= cell_9_6 3) (= cell_9_6 4) (= cell_9_6 5) (= cell_9_6 6) (= cell_9_6 7) (= cell_9_6 8) (= cell_9_6 9)))))
(assert
 (let (($x2714 (= cell_1_7 9)))
 (let (($x1074 (= cell_1_7 8)))
 (let (($x1774 (= cell_1_7 7)))
 (let (($x2317 (= cell_1_7 6)))
 (let (($x468 (= cell_1_7 5)))
 (let (($x2740 (= cell_1_7 4)))
 (let (($x7791 (= cell_1_7 3)))
 (let (($x1585 (= cell_1_7 2)))
 (let (($x3014 (= cell_1_7 1)))
 (or $x3014 $x1585 $x7791 $x2740 $x468 $x2317 $x1774 $x1074 $x2714)))))))))))
(assert
 (let (($x924 (= cell_2_7 9)))
 (let (($x1554 (= cell_2_7 8)))
 (let (($x621 (= cell_2_7 7)))
 (let (($x88 (= cell_2_7 6)))
 (let (($x2346 (= cell_2_7 5)))
 (let (($x3434 (= cell_2_7 4)))
 (let (($x2197 (= cell_2_7 3)))
 (let (($x235 (= cell_2_7 2)))
 (let (($x376 (= cell_2_7 1)))
 (or $x376 $x235 $x2197 $x3434 $x2346 $x88 $x621 $x1554 $x924)))))))))))
(assert
 (let (($x4189 (= cell_3_7 9)))
 (let (($x808 (= cell_3_7 8)))
 (let (($x2558 (= cell_3_7 7)))
 (let (($x1879 (= cell_3_7 6)))
 (let (($x560 (= cell_3_7 5)))
 (let (($x2633 (= cell_3_7 4)))
 (let (($x1330 (= cell_3_7 3)))
 (let (($x809 (= cell_3_7 2)))
 (let (($x3297 (= cell_3_7 1)))
 (or $x3297 $x809 $x1330 $x2633 $x560 $x1879 $x2558 $x808 $x4189)))))))))))
(assert
 (let (($x1957 (= cell_4_7 1)))
 (or $x1957 (= cell_4_7 2) (= cell_4_7 3) (= cell_4_7 4) (= cell_4_7 5) (= cell_4_7 6) (= cell_4_7 7) (= cell_4_7 8) (= cell_4_7 9))))
(assert
 (let (($x697 (= cell_5_7 9)))
 (let (($x1709 (= cell_5_7 8)))
 (let (($x19 (= cell_5_7 7)))
 (let (($x648 (= cell_5_7 6)))
 (let (($x646 (= cell_5_7 5)))
 (let (($x10 (= cell_5_7 4)))
 (let (($x979 (= cell_5_7 3)))
 (let (($x7776 (= cell_5_7 2)))
 (let (($x2599 (= cell_5_7 1)))
 (or $x2599 $x7776 $x979 $x10 $x646 $x648 $x19 $x1709 $x697)))))))))))
(assert
 (let (($x2165 (= cell_6_7 9)))
 (let (($x871 (= cell_6_7 8)))
 (let (($x2386 (= cell_6_7 7)))
 (let (($x6880 (= cell_6_7 6)))
 (let (($x1059 (= cell_6_7 5)))
 (let (($x519 (= cell_6_7 4)))
 (let (($x1800 (= cell_6_7 3)))
 (let (($x3510 (= cell_6_7 2)))
 (let (($x1976 (= cell_6_7 1)))
 (or $x1976 $x3510 $x1800 $x519 $x1059 $x6880 $x2386 $x871 $x2165)))))))))))
(assert
 (let (($x509 (= cell_7_7 2)))
 (or (= cell_7_7 1) $x509 (= cell_7_7 3) (= cell_7_7 4) (= cell_7_7 5) (= cell_7_7 6) (= cell_7_7 7) (= cell_7_7 8) (= cell_7_7 9))))
(assert
 (let (($x2339 (= cell_8_7 9)))
 (let (($x1803 (= cell_8_7 8)))
 (let (($x2613 (= cell_8_7 7)))
 (let (($x1610 (= cell_8_7 6)))
 (let (($x2446 (= cell_8_7 5)))
 (let (($x2569 (= cell_8_7 4)))
 (let (($x1319 (= cell_8_7 3)))
 (let (($x430 (= cell_8_7 2)))
 (let (($x2763 (= cell_8_7 1)))
 (or $x2763 $x430 $x1319 $x2569 $x2446 $x1610 $x2613 $x1803 $x2339)))))))))))
(assert
 (let (($x4035 (= cell_9_7 2)))
 (let (($x566 (= cell_9_7 1)))
 (or $x566 $x4035 (= cell_9_7 3) (= cell_9_7 4) (= cell_9_7 5) (= cell_9_7 6) (= cell_9_7 7) (= cell_9_7 8) (= cell_9_7 9)))))
(assert
 (let (($x7756 (= cell_1_8 9)))
 (let (($x1448 (= cell_1_8 8)))
 (let (($x452 (= cell_1_8 7)))
 (let (($x3817 (= cell_1_8 6)))
 (let (($x2349 (= cell_1_8 5)))
 (let (($x681 (= cell_1_8 4)))
 (let (($x1091 (= cell_1_8 3)))
 (let (($x1250 (= cell_1_8 2)))
 (let (($x1668 (= cell_1_8 1)))
 (or $x1668 $x1250 $x1091 $x681 $x2349 $x3817 $x452 $x1448 $x7756)))))))))))
(assert
 (let (($x345 (= cell_2_8 9)))
 (let (($x1858 (= cell_2_8 8)))
 (let (($x2409 (= cell_2_8 7)))
 (let (($x3317 (= cell_2_8 6)))
 (let (($x2940 (= cell_2_8 5)))
 (let (($x4151 (= cell_2_8 4)))
 (let (($x2071 (= cell_2_8 3)))
 (let (($x1899 (= cell_2_8 2)))
 (let (($x6997 (= cell_2_8 1)))
 (or $x6997 $x1899 $x2071 $x4151 $x2940 $x3317 $x2409 $x1858 $x345)))))))))))
(assert
 (let (($x1990 (= cell_3_8 9)))
 (let (($x1598 (= cell_3_8 8)))
 (let (($x7986 (= cell_3_8 7)))
 (let (($x542 (= cell_3_8 6)))
 (let (($x1369 (= cell_3_8 5)))
 (let (($x2792 (= cell_3_8 4)))
 (let (($x540 (= cell_3_8 3)))
 (let (($x660 (= cell_3_8 2)))
 (let (($x28 (= cell_3_8 1)))
 (or $x28 $x660 $x540 $x2792 $x1369 $x542 $x7986 $x1598 $x1990)))))))))))
(assert
 (let (($x305 (= cell_4_8 9)))
 (let (($x317 (= cell_4_8 8)))
 (let (($x2093 (= cell_4_8 7)))
 (let (($x1129 (= cell_4_8 6)))
 (let (($x3377 (= cell_4_8 5)))
 (let (($x2257 (= cell_4_8 4)))
 (let (($x379 (= cell_4_8 3)))
 (let (($x395 (= cell_4_8 2)))
 (let (($x7843 (= cell_4_8 1)))
 (or $x7843 $x395 $x379 $x2257 $x3377 $x1129 $x2093 $x317 $x305)))))))))))
(assert
 (let (($x592 (= cell_5_8 2)))
 (or (= cell_5_8 1) $x592 (= cell_5_8 3) (= cell_5_8 4) (= cell_5_8 5) (= cell_5_8 6) (= cell_5_8 7) (= cell_5_8 8) (= cell_5_8 9))))
(assert
 (let (($x1629 (= cell_6_8 9)))
 (let (($x476 (= cell_6_8 8)))
 (let (($x2688 (= cell_6_8 7)))
 (let (($x3930 (= cell_6_8 6)))
 (let (($x2106 (= cell_6_8 5)))
 (let (($x2518 (= cell_6_8 4)))
 (let (($x1206 (= cell_6_8 3)))
 (let (($x3076 (= cell_6_8 2)))
 (let (($x2973 (= cell_6_8 1)))
 (or $x2973 $x3076 $x1206 $x2518 $x2106 $x3930 $x2688 $x476 $x1629)))))))))))
(assert
 (let (($x1223 (= cell_7_8 9)))
 (let (($x2937 (= cell_7_8 8)))
 (let (($x2039 (= cell_7_8 7)))
 (let (($x3556 (= cell_7_8 6)))
 (let (($x527 (= cell_7_8 5)))
 (let (($x1768 (= cell_7_8 4)))
 (let (($x2251 (= cell_7_8 3)))
 (let (($x1515 (= cell_7_8 2)))
 (let (($x934 (= cell_7_8 1)))
 (or $x934 $x1515 $x2251 $x1768 $x527 $x3556 $x2039 $x2937 $x1223)))))))))))
(assert
 (let (($x3427 (= cell_8_8 1)))
 (or $x3427 (= cell_8_8 2) (= cell_8_8 3) (= cell_8_8 4) (= cell_8_8 5) (= cell_8_8 6) (= cell_8_8 7) (= cell_8_8 8) (= cell_8_8 9))))
(assert
 (let (($x1047 (= cell_9_8 2)))
 (let (($x982 (= cell_9_8 1)))
 (or $x982 $x1047 (= cell_9_8 3) (= cell_9_8 4) (= cell_9_8 5) (= cell_9_8 6) (= cell_9_8 7) (= cell_9_8 8) (= cell_9_8 9)))))
(assert
 (let (($x817 (= cell_1_9 1)))
 (or $x817 (= cell_1_9 2) (= cell_1_9 3) (= cell_1_9 4) (= cell_1_9 5) (= cell_1_9 6) (= cell_1_9 7) (= cell_1_9 8) (= cell_1_9 9))))
(assert
 (let (($x2427 (= cell_2_9 9)))
 (let (($x3769 (= cell_2_9 8)))
 (let (($x1843 (= cell_2_9 7)))
 (let (($x2298 (= cell_2_9 6)))
 (let (($x1664 (= cell_2_9 5)))
 (let (($x2727 (= cell_2_9 4)))
 (let (($x659 (= cell_2_9 3)))
 (let (($x1829 (= cell_2_9 2)))
 (let (($x3974 (= cell_2_9 1)))
 (or $x3974 $x1829 $x659 $x2727 $x1664 $x2298 $x1843 $x3769 $x2427)))))))))))
(assert
 (let (($x3667 (= cell_3_9 2)))
 (or (= cell_3_9 1) $x3667 (= cell_3_9 3) (= cell_3_9 4) (= cell_3_9 5) (= cell_3_9 6) (= cell_3_9 7) (= cell_3_9 8) (= cell_3_9 9))))
(assert
 (let (($x2441 (= cell_4_9 9)))
 (let (($x900 (= cell_4_9 8)))
 (let (($x2335 (= cell_4_9 7)))
 (let (($x8017 (= cell_4_9 6)))
 (let (($x709 (= cell_4_9 5)))
 (let (($x4076 (= cell_4_9 4)))
 (let (($x561 (= cell_4_9 3)))
 (let (($x3855 (= cell_4_9 2)))
 (let (($x2506 (= cell_4_9 1)))
 (or $x2506 $x3855 $x561 $x4076 $x709 $x8017 $x2335 $x900 $x2441)))))))))))
(assert
 (let (($x3542 (= cell_5_9 9)))
 (let (($x469 (= cell_5_9 8)))
 (let (($x2567 (= cell_5_9 7)))
 (let (($x1030 (= cell_5_9 6)))
 (let (($x2967 (= cell_5_9 5)))
 (let (($x1490 (= cell_5_9 4)))
 (let (($x1096 (= cell_5_9 3)))
 (let (($x633 (= cell_5_9 2)))
 (let (($x3421 (= cell_5_9 1)))
 (or $x3421 $x633 $x1096 $x1490 $x2967 $x1030 $x2567 $x469 $x3542)))))))))))
(assert
 (let (($x64 (= cell_6_9 2)))
 (let (($x2161 (= cell_6_9 1)))
 (or $x2161 $x64 (= cell_6_9 3) (= cell_6_9 4) (= cell_6_9 5) (= cell_6_9 6) (= cell_6_9 7) (= cell_6_9 8) (= cell_6_9 9)))))
(assert
 (let (($x3789 (= cell_7_9 9)))
 (let (($x7980 (= cell_7_9 8)))
 (let (($x2058 (= cell_7_9 7)))
 (let (($x827 (= cell_7_9 6)))
 (let (($x2424 (= cell_7_9 5)))
 (let (($x2686 (= cell_7_9 4)))
 (let (($x2691 (= cell_7_9 3)))
 (let (($x485 (= cell_7_9 2)))
 (let (($x1184 (= cell_7_9 1)))
 (or $x1184 $x485 $x2691 $x2686 $x2424 $x827 $x2058 $x7980 $x3789)))))))))))
(assert
 (let (($x1409 (= cell_8_9 2)))
 (let (($x2024 (= cell_8_9 1)))
 (or $x2024 $x1409 (= cell_8_9 3) (= cell_8_9 4) (= cell_8_9 5) (= cell_8_9 6) (= cell_8_9 7) (= cell_8_9 8) (= cell_8_9 9)))))
(assert
 (let (($x1772 (= cell_9_9 2)))
 (let (($x2896 (= cell_9_9 1)))
 (or $x2896 $x1772 (= cell_9_9 3) (= cell_9_9 4) (= cell_9_9 5) (= cell_9_9 6) (= cell_9_9 7) (= cell_9_9 8) (= cell_9_9 9)))))
(assert
 (and (distinct cell_1_1 cell_1_2 cell_1_3 cell_1_4 cell_1_5 cell_1_6 cell_1_7 cell_1_8 cell_1_9) true))
(assert
 (and (distinct cell_2_1 cell_2_2 cell_2_3 cell_2_4 cell_2_5 cell_2_6 cell_2_7 cell_2_8 cell_2_9) true))
(assert
 (and (distinct cell_3_1 cell_3_2 cell_3_3 cell_3_4 cell_3_5 cell_3_6 cell_3_7 cell_3_8 cell_3_9) true))
(assert
 (and (distinct cell_4_1 cell_4_2 cell_4_3 cell_4_4 cell_4_5 cell_4_6 cell_4_7 cell_4_8 cell_4_9) true))
(assert
 (and (distinct cell_5_1 cell_5_2 cell_5_3 cell_5_4 cell_5_5 cell_5_6 cell_5_7 cell_5_8 cell_5_9) true))
(assert
 (and (distinct cell_6_1 cell_6_2 cell_6_3 cell_6_4 cell_6_5 cell_6_6 cell_6_7 cell_6_8 cell_6_9) true))
(assert
 (and (distinct cell_7_1 cell_7_2 cell_7_3 cell_7_4 cell_7_5 cell_7_6 cell_7_7 cell_7_8 cell_7_9) true))
(assert
 (and (distinct cell_8_1 cell_8_2 cell_8_3 cell_8_4 cell_8_5 cell_8_6 cell_8_7 cell_8_8 cell_8_9) true))
(assert
 (and (distinct cell_9_1 cell_9_2 cell_9_3 cell_9_4 cell_9_5 cell_9_6 cell_9_7 cell_9_8 cell_9_9) true))
(assert
 (and (distinct cell_1_1 cell_2_1 cell_3_1 cell_4_1 cell_5_1 cell_6_1 cell_7_1 cell_8_1 cell_9_1) true))
(assert
 (and (distinct cell_1_2 cell_2_2 cell_3_2 cell_4_2 cell_5_2 cell_6_2 cell_7_2 cell_8_2 cell_9_2) true))
(assert
 (and (distinct cell_1_3 cell_2_3 cell_3_3 cell_4_3 cell_5_3 cell_6_3 cell_7_3 cell_8_3 cell_9_3) true))
(assert
 (and (distinct cell_1_4 cell_2_4 cell_3_4 cell_4_4 cell_5_4 cell_6_4 cell_7_4 cell_8_4 cell_9_4) true))
(assert
 (and (distinct cell_1_5 cell_2_5 cell_3_5 cell_4_5 cell_5_5 cell_6_5 cell_7_5 cell_8_5 cell_9_5) true))
(assert
 (and (distinct cell_1_6 cell_2_6 cell_3_6 cell_4_6 cell_5_6 cell_6_6 cell_7_6 cell_8_6 cell_9_6) true))
(assert
 (and (distinct cell_1_7 cell_2_7 cell_3_7 cell_4_7 cell_5_7 cell_6_7 cell_7_7 cell_8_7 cell_9_7) true))
(assert
 (and (distinct cell_1_8 cell_2_8 cell_3_8 cell_4_8 cell_5_8 cell_6_8 cell_7_8 cell_8_8 cell_9_8) true))
(assert
 (and (distinct cell_1_9 cell_2_9 cell_3_9 cell_4_9 cell_5_9 cell_6_9 cell_7_9 cell_8_9 cell_9_9) true))
(assert
 (and (distinct cell_1_1 cell_1_2 cell_1_3 cell_2_1 cell_2_2 cell_2_3 cell_3_1 cell_3_2 cell_3_3) true))
(assert
 (and (distinct cell_1_4 cell_1_5 cell_1_6 cell_2_4 cell_2_5 cell_2_6 cell_3_4 cell_3_5 cell_3_6) true))
(assert
 (and (distinct cell_1_7 cell_1_8 cell_1_9 cell_2_7 cell_2_8 cell_2_9 cell_3_7 cell_3_8 cell_3_9) true))
(assert
 (and (distinct cell_4_1 cell_4_2 cell_4_3 cell_5_1 cell_5_2 cell_5_3 cell_6_1 cell_6_2 cell_6_3) true))
(assert
 (and (distinct cell_4_4 cell_4_5 cell_4_6 cell_5_4 cell_5_5 cell_5_6 cell_6_4 cell_6_5 cell_6_6) true))
(assert
 (and (distinct cell_4_7 cell_4_8 cell_4_9 cell_5_7 cell_5_8 cell_5_9 cell_6_7 cell_6_8 cell_6_9) true))
(assert
 (and (distinct cell_7_1 cell_7_2 cell_7_3 cell_8_1 cell_8_2 cell_8_3 cell_9_1 cell_9_2 cell_9_3) true))
(assert
 (and (distinct cell_7_4 cell_7_5 cell_7_6 cell_8_4 cell_8_5 cell_8_6 cell_9_4 cell_9_5 cell_9_6) true))
(assert
 (and (distinct cell_7_7 cell_7_8 cell_7_9 cell_8_7 cell_8_8 cell_8_9 cell_9_7 cell_9_8 cell_9_9) true))
(assert
 (let (($x3560 (and (distinct cell_5_9 cell_6_8 cell_7_7 cell_8_6) true)))
 (let (($x1029 (and (distinct cell_2_9 cell_3_8 cell_4_7 cell_5_6 cell_6_5 cell_7_4 cell_8_3 cell_9_2) true)))
 (let (($x2930 (and (distinct cell_1_8 cell_2_7 cell_3_6 cell_4_5 cell_5_4 cell_6_3 cell_7_2 cell_8_1) true)))
 (let (($x3406 (and (distinct cell_1_5 cell_2_4 cell_3_3 cell_4_2) true)))
 (let (($x3050 (and (distinct cell_5_1 cell_6_2 cell_7_3 cell_8_4) true)))
 (let (($x2352 (and (distinct cell_2_1 cell_3_2 cell_4_3 cell_5_4 cell_6_5 cell_7_6 cell_8_7 cell_9_8) true)))
 (let (($x1712 (and (distinct cell_1_2 cell_2_3 cell_3_4 cell_4_5 cell_5_6 cell_6_7 cell_7_8 cell_8_9) true)))
 (let (($x270 (and (distinct cell_1_5 cell_2_6 cell_3_7 cell_4_8) true)))
 (and $x270 $x1712 $x2352 $x3050 $x3406 $x2930 $x1029 $x3560))))))))))
(assert
 (= cell_8_5 2))
(check-sat)
